(declare-fun bvlambda_29_ () (_ BitVec 1))
(declare-fun bvlambda_31_ ()Bool         )
(declare-fun a92 () (Array (_ BitVec 1) (_ BitVec 12)))
(assert
(let (($e1 (_ bv0 1)))
(let (($e21 (_ bv0 3)))
(let (($e22 (_ bv0 12)))
(let (($e112 (store a92 bvlambda_31_ $e22)))
(let (($e226 (select $e112 true       )))
(let (($e232 (store a92   $e1 $e226)))
(let (($e233 (select $e232 bvlambda_29_)))
(let (($e300 (concat $e226        bvlambda_31_)))
(let (($e301 (concat $e300        bvlambda_29_)))
(let (($e302 (concat $e301        bvlambda_31_)))
(let (($e318 (concat        $e21  $e233)))
                  (bvult $e318 $e302)
                                                                                                                                                                                                                                                                                                                                                                                                                                                                                                                                                                                                                                                                                                                                                                                                                                                                                                                                               )               )))                                                                  ))     )                                                                                                                 )                                                         ))                   ))
